p cnf 1142
-19 -355
-20 -358
-21 -361
-22 -364
-23 -367
-24 -370
-25 -373
-26 -376
-27 -379
-28 -382
-29 -385
-30 -388
-31 -391
-32 -394
-33 -397
-34 -400
-35 -403
-36 -406
-37 407
-38 408
-39 409
-40 410
-41 411
-42 412
-43 413
-44 -20
-44 -21
20 21 44
-45 -22
-45 -23
22 23 45
-46 -24
-46 -25
24 25 46
-47 -26
-47 -27
26 27 47
-48 -28
-48 -29
28 29 48
-49 -30
-49 -31
30 31 49
-50 -32
-50 -33
32 33 50
-51 -34
-51 -35
34 35 51
-52 -36
-52 -37
36 37 52
-53 -38
-53 -39
38 39 53
-54 -40
-54 -41
40 41 54
-55 -42
-55 -43
42 43 55
-56 44
-56 45
-44 -45 56
-57 46
-57 47
-46 -47 57
-58 48
-58 49
-48 -49 58
-59 50
-59 51
-50 -51 59
-60 52
-60 53
-52 -53 60
-61 54
-61 55
-54 -55 61
-62 56
-62 57
-56 -57 62
-63 58
-63 59
-58 -59 63
-64 60
-64 61
-60 -61 64
-65 62
-65 63
-62 -63 65
-66 64
-66 65
-64 -65 66
-67 -19
-67 20
19 -20 67
-68 19
-68 -20
-19 20 68
-69 -67
-69 -68
67 68 69
-70 19
-70 20
-19 -20 70
-71 -19
-71 -69
19 69 71
-72 19
-72 69
-19 -69 72
-73 -71
-73 -72
71 72 73
-74 19
-74 -69
-19 69 74
-75 -70
-75 -74
70 74 75
-76 -20
-76 21
20 -21 76
-77 20
-77 -21
-20 21 77
-78 -76
-78 -77
76 77 78
-79 20
-79 21
-20 -21 79
-80 75
-80 -78
-75 78 80
-81 -75
-81 78
75 -78 81
-82 -80
-82 -81
80 81 82
-83 -75
-83 -78
75 78 83
-84 -79
-84 -83
79 83 84
-85 -21
-85 22
21 -22 85
-86 21
-86 -22
-21 22 86
-87 -85
-87 -86
85 86 87
-88 21
-88 22
-21 -22 88
-89 84
-89 -87
-84 87 89
-90 -84
-90 87
84 -87 90
-91 -89
-91 -90
89 90 91
-92 -84
-92 -87
84 87 92
-93 -88
-93 -92
88 92 93
-94 -22
-94 23
22 -23 94
-95 22
-95 -23
-22 23 95
-96 -94
-96 -95
94 95 96
-97 22
-97 23
-22 -23 97
-98 93
-98 -96
-93 96 98
-99 -93
-99 96
93 -96 99
-100 -98
-100 -99
98 99 100
-101 -93
-101 -96
93 96 101
-102 -97
-102 -101
97 101 102
-103 -23
-103 24
23 -24 103
-104 23
-104 -24
-23 24 104
-105 -103
-105 -104
103 104 105
-106 23
-106 24
-23 -24 106
-107 102
-107 -105
-102 105 107
-108 -102
-108 105
102 -105 108
-109 -107
-109 -108
107 108 109
-110 -102
-110 -105
102 105 110
-111 -106
-111 -110
106 110 111
-112 -24
-112 25
24 -25 112
-113 24
-113 -25
-24 25 113
-114 -112
-114 -113
112 113 114
-115 24
-115 25
-24 -25 115
-116 111
-116 -114
-111 114 116
-117 -111
-117 114
111 -114 117
-118 -116
-118 -117
116 117 118
-119 -111
-119 -114
111 114 119
-120 -115
-120 -119
115 119 120
-121 -25
-121 26
25 -26 121
-122 25
-122 -26
-25 26 122
-123 -121
-123 -122
121 122 123
-124 25
-124 26
-25 -26 124
-125 120
-125 -123
-120 123 125
-126 -120
-126 123
120 -123 126
-127 -125
-127 -126
125 126 127
-128 -120
-128 -123
120 123 128
-129 -124
-129 -128
124 128 129
-130 -26
-130 27
26 -27 130
-131 26
-131 -27
-26 27 131
-132 -130
-132 -131
130 131 132
-133 26
-133 27
-26 -27 133
-134 129
-134 -132
-129 132 134
-135 -129
-135 132
129 -132 135
-136 -134
-136 -135
134 135 136
-137 -129
-137 -132
129 132 137
-138 -133
-138 -137
133 137 138
-139 -27
-139 28
27 -28 139
-140 27
-140 -28
-27 28 140
-141 -139
-141 -140
139 140 141
-142 27
-142 28
-27 -28 142
-143 138
-143 -141
-138 141 143
-144 -138
-144 141
138 -141 144
-145 -143
-145 -144
143 144 145
-146 -138
-146 -141
138 141 146
-147 -142
-147 -146
142 146 147
-148 -28
-148 29
28 -29 148
-149 28
-149 -29
-28 29 149
-150 -148
-150 -149
148 149 150
-151 28
-151 29
-28 -29 151
-152 147
-152 -150
-147 150 152
-153 -147
-153 150
147 -150 153
-154 -152
-154 -153
152 153 154
-155 -147
-155 -150
147 150 155
-156 -151
-156 -155
151 155 156
-157 -29
-157 30
29 -30 157
-158 29
-158 -30
-29 30 158
-159 -157
-159 -158
157 158 159
-160 29
-160 30
-29 -30 160
-161 156
-161 -159
-156 159 161
-162 -156
-162 159
156 -159 162
-163 -161
-163 -162
161 162 163
-164 -156
-164 -159
156 159 164
-165 -160
-165 -164
160 164 165
-166 -30
-166 31
30 -31 166
-167 30
-167 -31
-30 31 167
-168 -166
-168 -167
166 167 168
-169 30
-169 31
-30 -31 169
-170 165
-170 -168
-165 168 170
-171 -165
-171 168
165 -168 171
-172 -170
-172 -171
170 171 172
-173 -165
-173 -168
165 168 173
-174 -169
-174 -173
169 173 174
-175 -31
-175 32
31 -32 175
-176 31
-176 -32
-31 32 176
-177 -175
-177 -176
175 176 177
-178 31
-178 32
-31 -32 178
-179 174
-179 -177
-174 177 179
-180 -174
-180 177
174 -177 180
-181 -179
-181 -180
179 180 181
-182 -174
-182 -177
174 177 182
-183 -178
-183 -182
178 182 183
-184 -32
-184 33
32 -33 184
-185 32
-185 -33
-32 33 185
-186 -184
-186 -185
184 185 186
-187 32
-187 33
-32 -33 187
-188 183
-188 -186
-183 186 188
-189 -183
-189 186
183 -186 189
-190 -188
-190 -189
188 189 190
-191 -183
-191 -186
183 186 191
-192 -187
-192 -191
187 191 192
-193 -33
-193 34
33 -34 193
-194 33
-194 -34
-33 34 194
-195 -193
-195 -194
193 194 195
-196 33
-196 34
-33 -34 196
-197 192
-197 -195
-192 195 197
-198 -192
-198 195
192 -195 198
-199 -197
-199 -198
197 198 199
-200 -192
-200 -195
192 195 200
-201 -196
-201 -200
196 200 201
-202 -34
-202 35
34 -35 202
-203 34
-203 -35
-34 35 203
-204 -202
-204 -203
202 203 204
-205 34
-205 35
-34 -35 205
-206 201
-206 -204
-201 204 206
-207 -201
-207 204
201 -204 207
-208 -206
-208 -207
206 207 208
-209 -201
-209 -204
201 204 209
-210 -205
-210 -209
205 209 210
-211 -35
-211 36
35 -36 211
-212 35
-212 -36
-35 36 212
-213 -211
-213 -212
211 212 213
-214 35
-214 36
-35 -36 214
-215 210
-215 -213
-210 213 215
-216 -210
-216 213
210 -213 216
-217 -215
-217 -216
215 216 217
-218 -210
-218 -213
210 213 218
-219 -214
-219 -218
214 218 219
-220 -36
-220 37
36 -37 220
-221 36
-221 -37
-36 37 221
-222 -220
-222 -221
220 221 222
-223 36
-223 37
-36 -37 223
-224 219
-224 -222
-219 222 224
-225 -219
-225 222
219 -222 225
-226 -224
-226 -225
224 225 226
-227 -219
-227 -222
219 222 227
-228 -223
-228 -227
223 227 228
-229 -37
-229 38
37 -38 229
-230 37
-230 -38
-37 38 230
-231 -229
-231 -230
229 230 231
-232 37
-232 38
-37 -38 232
-233 228
-233 -231
-228 231 233
-234 -228
-234 231
228 -231 234
-235 -233
-235 -234
233 234 235
-236 -228
-236 -231
228 231 236
-237 -232
-237 -236
232 236 237
-238 -38
-238 39
38 -39 238
-239 38
-239 -39
-38 39 239
-240 -238
-240 -239
238 239 240
-241 38
-241 39
-38 -39 241
-242 237
-242 -240
-237 240 242
-243 -237
-243 240
237 -240 243
-244 -242
-244 -243
242 243 244
-245 -237
-245 -240
237 240 245
-246 -241
-246 -245
241 245 246
-247 -39
-247 40
39 -40 247
-248 39
-248 -40
-39 40 248
-249 -247
-249 -248
247 248 249
-250 39
-250 40
-39 -40 250
-251 246
-251 -249
-246 249 251
-252 -246
-252 249
246 -249 252
-253 -251
-253 -252
251 252 253
-254 -246
-254 -249
246 249 254
-255 -250
-255 -254
250 254 255
-256 -40
-256 41
40 -41 256
-257 40
-257 -41
-40 41 257
-258 -256
-258 -257
256 257 258
-259 40
-259 41
-40 -41 259
-260 255
-260 -258
-255 258 260
-261 -255
-261 258
255 -258 261
-262 -260
-262 -261
260 261 262
-263 -255
-263 -258
255 258 263
-264 -259
-264 -263
259 263 264
-265 -41
-265 42
41 -42 265
-266 41
-266 -42
-41 42 266
-267 -265
-267 -266
265 266 267
-268 41
-268 42
-41 -42 268
-269 264
-269 -267
-264 267 269
-270 -264
-270 267
264 -267 270
-271 -269
-271 -270
269 270 271
-272 -264
-272 -267
264 267 272
-273 -268
-273 -272
268 272 273
-274 -42
-274 43
42 -43 274
-275 42
-275 -43
-42 43 275
-276 -274
-276 -275
274 275 276
-277 42
-277 43
-42 -43 277
-278 273
-278 -276
-273 276 278
-279 -273
-279 276
273 -276 279
-280 -278
-280 -279
278 279 280
-281 -273
-281 -276
273 276 281
-282 -277
-282 -281
277 281 282
-283 19
-283 -73
-19 73 283
-284 -19
-284 21
19 -21 284
-285 -283
-285 -284
283 284 285
-286 19
-286 -82
-19 82 286
-287 -19
-287 22
19 -22 287
-288 -286
-288 -287
286 287 288
-289 19
-289 -91
-19 91 289
-290 -19
-290 23
19 -23 290
-291 -289
-291 -290
289 290 291
-292 19
-292 -100
-19 100 292
-293 -19
-293 24
19 -24 293
-294 -292
-294 -293
292 293 294
-295 19
-295 -109
-19 109 295
-296 -19
-296 25
19 -25 296
-297 -295
-297 -296
295 296 297
-298 19
-298 -118
-19 118 298
-299 -19
-299 26
19 -26 299
-300 -298
-300 -299
298 299 300
-301 19
-301 -127
-19 127 301
-302 -19
-302 27
19 -27 302
-303 -301
-303 -302
301 302 303
-304 19
-304 -136
-19 136 304
-305 -19
-305 28
19 -28 305
-306 -304
-306 -305
304 305 306
-307 19
-307 -145
-19 145 307
-308 -19
-308 29
19 -29 308
-309 -307
-309 -308
307 308 309
-310 19
-310 -154
-19 154 310
-311 -19
-311 30
19 -30 311
-312 -310
-312 -311
310 311 312
-313 19
-313 -163
-19 163 313
-314 -19
-314 31
19 -31 314
-315 -313
-315 -314
313 314 315
-316 19
-316 -172
-19 172 316
-317 -19
-317 32
19 -32 317
-318 -316
-318 -317
316 317 318
-319 19
-319 -181
-19 181 319
-320 -19
-320 33
19 -33 320
-321 -319
-321 -320
319 320 321
-322 19
-322 -190
-19 190 322
-323 -19
-323 34
19 -34 323
-324 -322
-324 -323
322 323 324
-325 19
-325 -199
-19 199 325
-326 -19
-326 35
19 -35 326
-327 -325
-327 -326
325 326 327
-328 19
-328 -208
-19 208 328
-329 -19
-329 36
19 -36 329
-330 -328
-330 -329
328 329 330
-331 19
-331 -217
-19 217 331
-332 -19
-332 37
19 -37 332
-333 -331
-333 -332
331 332 333
-334 19
-334 -226
-19 226 334
-335 -19
-335 38
19 -38 335
-336 -334
-336 -335
334 335 336
-337 19
-337 -235
-19 235 337
-338 -19
-338 39
19 -39 338
-339 -337
-339 -338
337 338 339
-340 19
-340 -244
-19 244 340
-341 -19
-341 40
19 -40 341
-342 -340
-342 -341
340 341 342
-343 19
-343 -253
-19 253 343
-344 -19
-344 41
19 -41 344
-345 -343
-345 -344
343 344 345
-346 19
-346 -262
-19 262 346
-347 -19
-347 42
19 -42 347
-348 -346
-348 -347
346 347 348
-349 19
-349 -271
-19 271 349
-350 -19
-350 43
19 -43 350
-351 -349
-351 -350
349 350 351
-352 19
-352 -280
-19 280 352
-353 1
-353 66
-1 -66 353
-354 -66
-354 67
66 -67 354
-355 -353
-355 -354
353 354 355
-356 2
-356 66
-2 -66 356
-357 -66
-357 -285
66 285 357
-358 -356
-358 -357
356 357 358
-359 3
-359 66
-3 -66 359
-360 -66
-360 -288
66 288 360
-361 -359
-361 -360
359 360 361
-362 4
-362 66
-4 -66 362
-363 -66
-363 -291
66 291 363
-364 -362
-364 -363
362 363 364
-365 5
-365 66
-5 -66 365
-366 -66
-366 -294
66 294 366
-367 -365
-367 -366
365 366 367
-368 6
-368 66
-6 -66 368
-369 -66
-369 -297
66 297 369
-370 -368
-370 -369
368 369 370
-371 7
-371 66
-7 -66 371
-372 -66
-372 -300
66 300 372
-373 -371
-373 -372
371 372 373
-374 8
-374 66
-8 -66 374
-375 -66
-375 -303
66 303 375
-376 -374
-376 -375
374 375 376
-377 9
-377 66
-9 -66 377
-378 -66
-378 -306
66 306 378
-379 -377
-379 -378
377 378 379
-380 10
-380 66
-10 -66 380
-381 -66
-381 -309
66 309 381
-382 -380
-382 -381
380 381 382
-383 11
-383 66
-11 -66 383
-384 -66
-384 -312
66 312 384
-385 -383
-385 -384
383 384 385
-386 12
-386 66
-12 -66 386
-387 -66
-387 -315
66 315 387
-388 -386
-388 -387
386 387 388
-389 13
-389 66
-13 -66 389
-390 -66
-390 -318
66 318 390
-391 -389
-391 -390
389 390 391
-392 14
-392 66
-14 -66 392
-393 -66
-393 -321
66 321 393
-394 -392
-394 -393
392 393 394
-395 15
-395 66
-15 -66 395
-396 -66
-396 -324
66 324 396
-397 -395
-397 -396
395 396 397
-398 16
-398 66
-16 -66 398
-399 -66
-399 -327
66 327 399
-400 -398
-400 -399
398 399 400
-401 17
-401 66
-17 -66 401
-402 -66
-402 -330
66 330 402
-403 -401
-403 -402
401 402 403
-404 18
-404 66
-18 -66 404
-405 -66
-405 -333
66 333 405
-406 -404
-406 -405
404 405 406
-407 -66
-407 -336
66 336 407
-408 -66
-408 -339
66 339 408
-409 -66
-409 -342
66 342 409
-410 -66
-410 -345
66 345 410
-411 -66
-411 -348
66 348 411
-412 -66
-412 -351
66 351 412
-413 -66
-413 352
66 -352 413
-414 -43
-414 282
43 -282 414
-415 19
-415 -414
-19 414 415
415
